NAME : 46gr229.71972.tour
COMMENT : Length = 71972
COMMENT : Found by LKH [Keld Helsgaun] Wed Jun  5 21:41:30 2013
TYPE : TOUR
DIMENSION : 46
TOUR_SECTION
2
13
16
54
59
78
73
103
112
113
114
138
139
152
151
155
205
206
212
211
203
201
200
223
222
220
216
217
227
228
229
226
225
224
43
45
42
46
184
187
176
175
40
33
30
28
-1
EOF
